% Auto-generated by scripts/generate_dzn.py
% problem_type   = regex
% instance       = regex_29
% source_json    = instances_json/2_high_blowup/regex_29.json
% blowup         = 39.696969696969695
% representation = NFA

mode = 1;

var_count = 23;
n_constraints = 2;
Q = 17;
S = 3;
q0 = [1, 1];
F = [{16}, {17}];
weights = [2, 9, 5, 2, 7, 8, 7, 1, 2, 2, 4, 6, 10, 5, 2, 2, 7, 4, 5, 8, 7, 10, 2];
d_dfa = array3d(1..2, 1..17, 1..3, [
  % k = 1
    0, 0, 0,
    0, 0, 0,
    0, 0, 0,
    0, 0, 0,
    0, 0, 0,
    0, 0, 0,
    0, 0, 0,
    0, 0, 0,
    0, 0, 0,
    0, 0, 0,
    0, 0, 0,
    0, 0, 0,
    0, 0, 0,
    0, 0, 0,
    0, 0, 0,
    0, 0, 0,
    0, 0, 0,

  % k = 2
    0, 0, 0,
    0, 0, 0,
    0, 0, 0,
    0, 0, 0,
    0, 0, 0,
    0, 0, 0,
    0, 0, 0,
    0, 0, 0,
    0, 0, 0,
    0, 0, 0,
    0, 0, 0,
    0, 0, 0,
    0, 0, 0,
    0, 0, 0,
    0, 0, 0,
    0, 0, 0,
    0, 0, 0
]);
d_nfa = array3d(1..2, 1..17, 1..3, [
  % k = 1
    {1}, {1}, {1, 2},
    {}, {}, {3},
    {}, {}, {4},
    {5}, {5}, {5},
    {6}, {6}, {6},
    {7}, {7}, {7},
    {8}, {8}, {8},
    {9}, {9}, {9},
    {10}, {10}, {10},
    {11}, {11}, {11},
    {12}, {12}, {12},
    {13}, {13}, {13},
    {14}, {14}, {14},
    {15}, {15}, {15},
    {16}, {16}, {16},
    {}, {}, {},
    {}, {}, {},

  % k = 2
    {1}, {2}, {1},
    {2}, {3}, {2},
    {3}, {4}, {3},
    {4}, {5}, {4},
    {5}, {6}, {5},
    {6}, {7}, {6},
    {7}, {8}, {7},
    {8}, {9}, {8},
    {9}, {10}, {9},
    {10}, {11}, {10},
    {11}, {12}, {11},
    {12}, {13}, {12},
    {13}, {14}, {13},
    {14}, {15}, {14},
    {15}, {16}, {15},
    {16}, {17}, {16},
    {17}, {}, {17}
]);
